p edge 65 1040
e 1 2
e 1 3
e 1 4
e 1 5
e 1 6
e 1 7
e 1 8
e 1 9
e 1 10
e 1 11
e 1 12
e 1 13
e 1 14
e 1 15
e 1 16
e 1 17
e 1 18
e 1 19
e 1 20
e 1 21
e 1 22
e 1 23
e 1 24
e 1 25
e 1 26
e 1 27
e 1 28
e 1 29
e 1 30
e 1 31
e 1 32
e 1 33
e 2 3
e 2 4
e 2 5
e 2 6
e 2 7
e 2 8
e 2 9
e 2 10
e 2 11
e 2 12
e 2 13
e 2 14
e 2 15
e 2 16
e 2 17
e 2 34
e 2 35
e 2 36
e 2 37
e 2 38
e 2 39
e 2 40
e 2 41
e 2 42
e 2 43
e 2 44
e 2 45
e 2 46
e 2 47
e 2 48
e 2 49
e 3 6
e 3 12
e 3 15
e 3 16
e 3 19
e 3 20
e 3 21
e 3 23
e 3 24
e 3 25
e 3 26
e 3 29
e 3 30
e 3 31
e 3 37
e 3 39
e 3 41
e 3 42
e 3 43
e 3 44
e 3 45
e 3 46
e 3 48
e 3 49
e 3 50
e 3 51
e 3 53
e 3 58
e 3 63
e 3 65
e 4 10
e 4 11
e 4 13
e 4 15
e 4 18
e 4 19
e 4 21
e 4 25
e 4 26
e 4 27
e 4 30
e 4 31
e 4 32
e 4 33
e 4 34
e 4 35
e 4 36
e 4 38
e 4 40
e 4 42
e 4 44
e 4 46
e 4 47
e 4 49
e 4 51
e 4 52
e 4 53
e 4 55
e 4 59
e 4 63
e 5 8
e 5 9
e 5 14
e 5 15
e 5 17
e 5 18
e 5 19
e 5 20
e 5 22
e 5 23
e 5 25
e 5 28
e 5 30
e 5 31
e 5 34
e 5 35
e 5 37
e 5 38
e 5 39
e 5 40
e 5 41
e 5 46
e 5 49
e 5 53
e 5 57
e 5 59
e 5 60
e 5 61
e 5 64
e 5 65
e 6 8
e 6 10
e 6 14
e 6 17
e 6 19
e 6 20
e 6 21
e 6 24
e 6 25
e 6 29
e 6 30
e 6 32
e 6 33
e 6 35
e 6 36
e 6 37
e 6 38
e 6 41
e 6 43
e 6 44
e 6 46
e 6 48
e 6 52
e 6 54
e 6 55
e 6 56
e 6 57
e 6 62
e 6 64
e 7 9
e 7 11
e 7 12
e 7 14
e 7 17
e 7 18
e 7 20
e 7 22
e 7 24
e 7 25
e 7 26
e 7 31
e 7 32
e 7 33
e 7 34
e 7 35
e 7 39
e 7 40
e 7 42
e 7 43
e 7 46
e 7 47
e 7 48
e 7 50
e 7 51
e 7 54
e 7 56
e 7 58
e 7 60
e 7 62
e 8 9
e 8 10
e 8 12
e 8 16
e 8 22
e 8 23
e 8 24
e 8 25
e 8 27
e 8 28
e 8 32
e 8 33
e 8 34
e 8 35
e 8 36
e 8 41
e 8 43
e 8 47
e 8 48
e 8 49
e 8 53
e 8 54
e 8 55
e 8 58
e 8 59
e 8 63
e 8 64
e 8 65
e 9 12
e 9 13
e 9 15
e 9 18
e 9 19
e 9 21
e 9 22
e 9 26
e 9 29
e 9 32
e 9 33
e 9 34
e 9 36
e 9 37
e 9 45
e 9 46
e 9 47
e 9 48
e 9 49
e 9 50
e 9 56
e 9 57
e 9 61
e 9 62
e 9 63
e 9 64
e 9 65
e 10 11
e 10 13
e 10 17
e 10 23
e 10 25
e 10 26
e 10 27
e 10 28
e 10 29
e 10 31
e 10 32
e 10 35
e 10 38
e 10 39
e 10 41
e 10 42
e 10 45
e 10 47
e 10 48
e 10 50
e 10 52
e 10 53
e 10 56
e 10 61
e 10 62
e 10 64
e 10 65
e 11 12
e 11 16
e 11 17
e 11 18
e 11 21
e 11 22
e 11 23
e 11 28
e 11 29
e 11 30
e 11 33
e 11 34
e 11 35
e 11 37
e 11 39
e 11 42
e 11 44
e 11 45
e 11 49
e 11 51
e 11 52
e 11 54
e 11 55
e 11 60
e 11 62
e 11 64
e 11 65
e 12 16
e 12 18
e 12 19
e 12 27
e 12 28
e 12 29
e 12 30
e 12 31
e 12 32
e 12 40
e 12 41
e 12 42
e 12 43
e 12 44
e 12 45
e 12 46
e 12 47
e 12 54
e 12 55
e 12 57
e 12 58
e 12 59
e 12 61
e 12 62
e 12 65
e 13 14
e 13 15
e 13 17
e 13 19
e 13 21
e 13 23
e 13 24
e 13 26
e 13 27
e 13 28
e 13 33
e 13 37
e 13 40
e 13 41
e 13 42
e 13 43
e 13 45
e 13 47
e 13 49
e 13 52
e 13 54
e 13 56
e 13 57
e 13 58
e 13 60
e 13 61
e 13 63
e 14 16
e 14 17
e 14 20
e 14 26
e 14 27
e 14 28
e 14 29
e 14 30
e 14 32
e 14 33
e 14 34
e 14 36
e 14 39
e 14 40
e 14 41
e 14 43
e 14 44
e 14 49
e 14 50
e 14 51
e 14 53
e 14 55
e 14 56
e 14 57
e 14 60
e 14 61
e 15 16
e 15 17
e 15 21
e 15 22
e 15 23
e 15 24
e 15 30
e 15 31
e 15 32
e 15 36
e 15 38
e 15 40
e 15 42
e 15 43
e 15 44
e 15 48
e 15 51
e 15 56
e 15 59
e 15 60
e 15 61
e 15 62
e 15 63
e 15 64
e 15 65
e 16 17
e 16 20
e 16 22
e 16 24
e 16 27
e 16 29
e 16 31
e 16 33
e 16 36
e 16 38
e 16 39
e 16 44
e 16 45
e 16 47
e 16 49
e 16 50
e 16 52
e 16 55
e 16 58
e 16 59
e 16 60
e 16 61
e 16 63
e 16 64
e 17 20
e 17 28
e 17 31
e 17 32
e 17 33
e 17 37
e 17 38
e 17 45
e 17 46
e 17 48
e 17 51
e 17 52
e 17 53
e 17 54
e 17 57
e 17 58
e 17 59
e 17 60
e 17 62
e 17 63
e 17 65
e 18 19
e 18 20
e 18 23
e 18 24
e 18 25
e 18 28
e 18 29
e 18 30
e 18 32
e 18 36
e 18 37
e 18 38
e 18 40
e 18 44
e 18 45
e 18 47
e 18 48
e 18 49
e 18 50
e 18 52
e 18 53
e 18 54
e 18 56
e 18 59
e 18 60
e 19 20
e 19 21
e 19 22
e 19 27
e 19 28
e 19 31
e 19 33
e 19 35
e 19 38
e 19 41
e 19 42
e 19 44
e 19 46
e 19 48
e 19 49
e 19 50
e 19 52
e 19 55
e 19 56
e 19 57
e 19 58
e 19 60
e 19 65
e 20 21
e 20 22
e 20 24
e 20 25
e 20 27
e 20 33
e 20 35
e 20 36
e 20 37
e 20 40
e 20 41
e 20 42
e 20 45
e 20 47
e 20 50
e 20 51
e 20 52
e 20 53
e 20 59
e 20 61
e 20 62
e 20 65
e 21 22
e 21 23
e 21 25
e 21 26
e 21 29
e 21 33
e 21 34
e 21 36
e 21 38
e 21 39
e 21 41
e 21 43
e 21 45
e 21 47
e 21 51
e 21 54
e 21 55
e 21 57
e 21 59
e 21 60
e 21 62
e 21 65
e 22 24
e 22 26
e 22 27
e 22 28
e 22 30
e 22 34
e 22 35
e 22 38
e 22 39
e 22 40
e 22 41
e 22 45
e 22 48
e 22 51
e 22 52
e 22 55
e 22 56
e 22 58
e 22 62
e 22 63
e 22 64
e 23 24
e 23 25
e 23 27
e 23 28
e 23 29
e 23 33
e 23 34
e 23 37
e 23 39
e 23 40
e 23 42
e 23 43
e 23 44
e 23 48
e 23 50
e 23 53
e 23 57
e 23 58
e 23 59
e 23 60
e 23 62
e 23 64
e 24 26
e 24 28
e 24 29
e 24 31
e 24 35
e 24 36
e 24 37
e 24 40
e 24 42
e 24 43
e 24 46
e 24 47
e 24 52
e 24 53
e 24 54
e 24 55
e 24 56
e 24 60
e 24 63
e 24 64
e 25 30
e 25 31
e 25 32
e 25 33
e 25 35
e 25 38
e 25 39
e 25 40
e 25 43
e 25 45
e 25 47
e 25 49
e 25 50
e 25 51
e 25 54
e 25 57
e 25 58
e 25 61
e 25 63
e 25 64
e 26 27
e 26 29
e 26 30
e 26 31
e 26 32
e 26 34
e 26 35
e 26 37
e 26 39
e 26 41
e 26 45
e 26 46
e 26 48
e 26 50
e 26 53
e 26 54
e 26 55
e 26 59
e 26 60
e 26 61
e 26 63
e 27 28
e 27 30
e 27 31
e 27 34
e 27 35
e 27 36
e 27 37
e 27 43
e 27 44
e 27 47
e 27 48
e 27 50
e 27 51
e 27 52
e 27 57
e 27 58
e 27 59
e 27 61
e 27 62
e 28 30
e 28 36
e 28 38
e 28 39
e 28 42
e 28 43
e 28 45
e 28 46
e 28 50
e 28 51
e 28 53
e 28 54
e 28 55
e 28 56
e 28 57
e 28 63
e 28 65
e 29 31
e 29 32
e 29 34
e 29 36
e 29 37
e 29 38
e 29 39
e 29 40
e 29 49
e 29 52
e 29 53
e 29 55
e 29 56
e 29 57
e 29 58
e 29 61
e 29 62
e 29 65
e 30 32
e 30 37
e 30 39
e 30 41
e 30 43
e 30 44
e 30 46
e 30 49
e 30 51
e 30 52
e 30 54
e 30 56
e 30 59
e 30 61
e 30 62
e 30 63
e 30 64
e 31 34
e 31 35
e 31 38
e 31 44
e 31 46
e 31 47
e 31 51
e 31 53
e 31 54
e 31 56
e 31 57
e 31 58
e 31 60
e 31 61
e 31 64
e 31 65
e 32 36
e 32 40
e 32 41
e 32 42
e 32 48
e 32 50
e 32 51
e 32 52
e 32 55
e 32 57
e 32 58
e 32 59
e 32 60
e 32 63
e 32 64
e 32 65
e 33 34
e 33 42
e 33 44
e 33 46
e 33 49
e 33 50
e 33 53
e 33 54
e 33 55
e 33 56
e 33 58
e 33 59
e 33 61
e 33 62
e 33 63
e 33 64
e 34 36
e 34 37
e 34 38
e 34 40
e 34 41
e 34 43
e 34 44
e 34 46
e 34 50
e 34 51
e 34 52
e 34 53
e 34 54
e 34 58
e 34 64
e 34 65
e 35 36
e 35 37
e 35 39
e 35 40
e 35 42
e 35 44
e 35 48
e 35 49
e 35 54
e 35 55
e 35 57
e 35 60
e 35 61
e 35 62
e 35 63
e 35 65
e 36 37
e 36 38
e 36 39
e 36 42
e 36 44
e 36 47
e 36 50
e 36 51
e 36 54
e 36 56
e 36 57
e 36 59
e 36 63
e 36 65
e 37 42
e 37 45
e 37 46
e 37 48
e 37 49
e 37 51
e 37 52
e 37 54
e 37 57
e 37 58
e 37 59
e 37 61
e 37 64
e 38 39
e 38 40
e 38 43
e 38 45
e 38 46
e 38 48
e 38 50
e 38 52
e 38 54
e 38 55
e 38 56
e 38 58
e 38 59
e 38 61
e 39 41
e 39 42
e 39 46
e 39 47
e 39 49
e 39 50
e 39 56
e 39 57
e 39 58
e 39 59
e 39 60
e 39 62
e 39 63
e 40 41
e 40 42
e 40 43
e 40 44
e 40 45
e 40 52
e 40 53
e 40 55
e 40 57
e 40 58
e 40 61
e 40 62
e 40 63
e 41 42
e 41 44
e 41 45
e 41 47
e 41 52
e 41 53
e 41 54
e 41 56
e 41 58
e 41 59
e 41 60
e 41 64
e 41 65
e 42 46
e 42 50
e 42 51
e 42 55
e 42 56
e 42 58
e 42 59
e 42 61
e 42 64
e 42 65
e 43 46
e 43 47
e 43 48
e 43 49
e 43 50
e 43 51
e 43 52
e 43 54
e 43 55
e 43 60
e 43 61
e 43 62
e 43 65
e 44 45
e 44 48
e 44 50
e 44 53
e 44 54
e 44 56
e 44 57
e 44 60
e 44 62
e 44 63
e 44 64
e 45 47
e 45 48
e 45 50
e 45 51
e 45 53
e 45 54
e 45 55
e 45 57
e 45 61
e 45 63
e 45 64
e 46 47
e 46 50
e 46 52
e 46 53
e 46 55
e 46 57
e 46 59
e 46 62
e 46 63
e 46 64
e 47 49
e 47 51
e 47 52
e 47 53
e 47 56
e 47 57
e 47 59
e 47 60
e 47 62
e 47 64
e 48 49
e 48 50
e 48 51
e 48 53
e 48 55
e 48 56
e 48 58
e 48 59
e 48 60
e 48 62
e 49 51
e 49 52
e 49 53
e 49 55
e 49 56
e 49 58
e 49 60
e 49 61
e 49 63
e 49 65
e 50 52
e 50 60
e 50 61
e 50 63
e 50 64
e 50 65
e 51 53
e 51 55
e 51 56
e 51 57
e 51 58
e 51 64
e 51 65
e 52 58
e 52 60
e 52 62
e 52 63
e 52 64
e 52 65
e 53 55
e 53 56
e 53 59
e 53 62
e 53 63
e 53 65
e 54 56
e 54 58
e 54 59
e 54 60
e 54 61
e 54 63
e 54 65
e 55 57
e 55 59
e 55 60
e 55 61
e 55 64
e 56 58
e 56 61
e 56 62
e 56 64
e 57 58
e 57 60
e 57 62
e 57 63
e 57 64
e 58 59
e 58 63
e 59 60
e 59 61
e 59 62
e 60 64
e 60 65
e 61 62
e 61 64
e 61 65
e 62 63
e 62 65
e 63 65
